/*********************************************
 * OPL 12.8.0.0 Data
 * Author: David Weiß
 * GitHub: DavidWeissCode
 * Creation Date: Feb 21, 2018
 *********************************************/

Stations = { 1, 2, 3 };

Station = [ <"s01", 10>,
        	<"s02", 11>,
        	<"s03", 12> ];
        